Solver command line: ['C:\\Program Files\\IBM\\ILOG\\CPLEX_Studio2211\\cplex\\bin\\x64_win64\\cplex.exe']


Welcome to IBM(R) ILOG(R) CPLEX(R) Interactive Optimizer 22.1.1.0
  with Simplex, Mixed Integer & Barrier Optimizers
5725-A06 5725-A29 5724-Y48 5724-Y49 5724-Y54 5724-Y55 5655-Y21
Copyright IBM Corp. 1988, 2022.  All Rights Reserved.

Type 'help' for a list of available commands.
Type 'help' followed by a command name for more
information on commands.

CPLEX> Logfile 'cplex.log' closed.
Logfile 'C:\Users\wangy\Documents\GitHub\re_optimization\result_site_specific\tmpyfu307rq.cplex.log' open.
CPLEX> Problem 'C:\Users\wangy\Documents\GitHub\re_optimization\result_site_specific\tmppo_m1y80.pyomo.lp' read.
Read time = 0.28 sec. (7.29 ticks)
CPLEX> Problem name         : C:\Users\wangy\Documents\GitHub\re_optimization\result_site_specific\tmppo_m1y80.pyomo.lp
Objective sense      : Minimize
Variables            :   52617  [Nneg: 27764,  Free: 8786,  Binary: 7,
                                 Other: 16060]
Objective nonzeros   :      14
Linear constraints   :   73052  [Less: 39437,  Greater: 3,  Equal: 33612]
  Nonzeros           :  181257
  RHS nonzeros       :    4033

Variables            : Min LB: 0.000000         Max UB: 1.000000       
Objective nonzeros   : Min   : 1.000000         Max   : 1.000000       
Linear constraints   :
  Nonzeros           : Min   : 0.001301875      Max   : 100000.0       
  RHS nonzeros       : Min   : 0.005000000      Max   : 1000.000       
CPLEX> Version identifier: 22.1.1.0 | 2022-11-27 | 9160aff4d
Tried aggregator 3 times.
MIP Presolve eliminated 47923 rows and 28944 columns.
Aggregator did 7409 substitutions.
Reduced MIP has 17720 rows, 16264 columns, and 51424 nonzeros.
Reduced MIP has 5 binaries, 0 generals, 0 SOSs, and 0 indicators.
Presolve time = 0.16 sec. (152.62 ticks)
Found incumbent of value 175943.946304 after 0.19 sec. (177.65 ticks)
Probing time = 0.02 sec. (0.98 ticks)
Tried aggregator 1 time.
Detecting symmetries...
Reduced MIP has 17720 rows, 16264 columns, and 51424 nonzeros.
Reduced MIP has 5 binaries, 0 generals, 0 SOSs, and 0 indicators.
Presolve time = 0.03 sec. (30.39 ticks)
Probing time = 0.00 sec. (0.89 ticks)
MIP emphasis: balance optimality and feasibility.
MIP search method: dynamic search.
Parallel mode: deterministic, using up to 16 threads.
Root relaxation solution time = 1.01 sec. (618.16 ticks)

        Nodes                                         Cuts/
   Node  Left     Objective  IInf  Best Integer    Best Bound    ItCnt     Gap

*     0+    0                       175943.9463   -10994.5202           106.25%
*     0+    0                         7244.8035   -10994.5202           251.76%
      0     0     7238.2938     1     7244.8035     7238.2938       71    0.09%
*     0+    0                         7244.7807     7238.2938             0.09%
      0     0        cutoff           7244.7807                     99    0.00%
Elapsed time = 1.47 sec. (929.17 ticks, tree = 0.01 MB, solutions = 3)

Root node processing (before b&c):
  Real time             =    1.47 sec. (931.66 ticks)
Parallel b&c, 16 threads:
  Real time             =    0.00 sec. (0.00 ticks)
  Sync time (average)   =    0.00 sec.
  Wait time (average)   =    0.00 sec.
                          ------------
Total (root+branch&cut) =    1.47 sec. (931.66 ticks)

Solution pool: 3 solutions saved.

MIP - Integer optimal solution:  Objective =  7.2447806535e+03
Solution time =    1.47 sec.  Iterations = 99  Nodes = 0
Deterministic time = 931.81 ticks  (634.32 ticks/sec)

CPLEX> Incumbent solution written to file 'C:\Users\wangy\Documents\GitHub\re_optimization\result_site_specific\tmp7csxvbzd.cplex.sol'.
CPLEX> 
